Minimize
  - 7 y_0 - 6 y_1 - 9 y_2 - 11 y_3 - 10 y_4 - 3 y_5 - 10 y_6 - 12 y_8
   - 7 y_9 - y_10 - 9 y_11 - 8 y_12 - 10 y_13 - 8 y_14 - 11 y_15 - 8 y_16
   - 10 y_17 - 8 y_18 - 6 y_19 - 2 y_20 - 9 y_21 - 11 y_22 - 9 y_23
   - 8 y_24 - 7 y_25 - 12 y_26 - 2 y_27 - 6 y_28 - 11 y_29 - 5 y_30
   - 9 y_31 - 8 y_32 - 7 y_33 - 7 y_34 - 8 y_35 - 9 y_36 - 10 y_37 - 7 y_38
   - 9 y_39 - 3 y_40 - 4 y_41 - 10 y_42 - 7 y_43 - 6 y_44 - 11 y_45
   - 7 y_46 - 10 y_47 - 4 y_48 - 6 y_49 - 8 y_50 - 2 y_51 - 10 y_52
   - 8 y_53 - 9 y_54 - 10 y_55 - 12 y_56 - 8 y_57 - 6 y_58 - 9 y_59
   - 8 y_60 - 3 y_61 - 11 y_62 - 10 y_63 - 8 y_64 - 6 y_65 - 10 y_66
   - 5 y_67 - 8 y_68 - 12 y_69 - 5 y_70 - 8 y_71 - 12 y_72 - 2 y_73
   - 9 y_74 - 2 y_75 - 10 y_76 - 2 y_77 - 8 y_78 - 3 y_79 - 10 y_80
   - 7 y_81 - 9 y_82 - 10 y_83 - 7 y_84 - 8 y_85 - 10 y_86 - 8 y_87
   - 2 y_88 - 8 y_89 - 10 y_90 - 5 y_91 - 7 y_92 - 9 y_93 - 10 y_94
   - 7 y_95 - 11 y_96 - 10 y_97 - 6 y_98 - 10 y_99 + 766 Constant
Subject To
 c_0: y_61 = 1
 c_1_0: y_0 + y_11 + y_25 + y_32 + y_35 + y_58 + y_81 + y_92 + y_93 >= 1
 c_1_1: y_1 + y_9 + y_18 + y_28 + y_38 + y_43 + y_49 + y_84 + y_91 >= 1
 c_1_2: y_2 + y_16 + y_18 + y_23 + y_24 + y_36 + y_37 + y_43 + y_52 + y_54
   + y_68 + y_76 + y_78 + y_80 + y_94 + y_95 >= 1
 c_1_3: y_3 + y_6 + y_8 + y_15 + y_29 + y_39 + y_45 + y_55 + y_63 + y_66
   + y_69 + y_72 + y_74 + y_83 + y_90 + y_99 >= 1
 c_1_4: y_4 + y_11 + y_39 + y_42 + y_63 + y_74 + y_82 + y_93 + y_96 + y_97
   >= 1
 c_1_5: y_5 + y_10 + y_51 + y_75 + y_77 + y_91 >= 1
 c_1_6: y_3 + y_6 + y_8 + y_15 + y_17 + y_29 + y_45 + y_47 + y_55 + y_59
   + y_63 + y_66 + y_69 + y_72 + y_74 + y_83 + y_89 + y_90 + y_99 >= 1
 c_1_7: y_7 + y_10 + y_20 + y_27 + y_51 + y_73 + y_75 >= 1
 c_1_8: y_3 + y_6 + y_8 + y_15 + y_29 + y_45 + y_69 + y_72 >= 1
 c_1_9: y_1 + y_9 + y_16 + y_18 + y_24 + y_28 + y_34 + y_38 + y_43 + y_49
   + y_53 + y_57 + y_68 + y_78 + y_84 + y_95 >= 1
 c_1_10: y_5 + y_7 + y_10 + y_20 + y_27 + y_40 + y_51 + y_61 + y_73 + y_75
   + y_77 + y_79 + y_88 >= 1
 c_1_11: y_0 + y_4 + y_11 + y_32 + y_35 + y_42 + y_82 + y_93 + y_97 >= 1
 c_1_12: y_12 + y_14 + y_32 + y_33 + y_39 + y_46 + y_59 + y_63 + y_74
   + y_89 + y_99 >= 1
 c_1_13: y_13 + y_86 >= 1
 c_1_14: y_12 + y_14 + y_17 + y_21 + y_31 + y_34 + y_38 + y_53 + y_57
   + y_59 + y_68 + y_78 + y_84 + y_89 + y_90 + y_99 >= 1
 c_1_15: y_3 + y_6 + y_8 + y_15 + y_17 + y_26 + y_29 + y_45 + y_47 + y_55
   + y_56 + y_59 + y_63 + y_66 + y_69 + y_72 + y_83 + y_90 + y_99 >= 1
 c_1_16: y_2 + y_9 + y_16 + y_18 + y_23 + y_24 + y_36 + y_43 + y_49 + y_53
   + y_60 + y_68 + y_76 + y_78 + y_80 + y_84 + y_95 >= 1
 c_1_17: y_6 + y_14 + y_15 + y_17 + y_21 + y_22 + y_29 + y_31 + y_45 + y_47
   + y_55 + y_59 + y_66 + y_69 + y_83 + y_89 + y_90 + y_99 >= 1
 c_1_18: y_1 + y_2 + y_9 + y_16 + y_18 + y_23 + y_24 + y_28 + y_34 + y_36
   + y_43 + y_49 + y_53 + y_57 + y_60 + y_68 + y_78 + y_84 + y_95 >= 1
 c_1_19: y_19 + y_32 + y_33 + y_35 + y_38 + y_46 + y_58 + y_70 + y_81
   + y_98 >= 1
 c_1_20: y_7 + y_10 + y_20 + y_27 + y_40 + y_41 + y_51 + y_61 + y_73 + y_75
   + y_77 + y_79 + y_88 >= 1
 c_1_21: y_14 + y_17 + y_21 + y_22 + y_23 + y_31 + y_34 + y_47 + y_52
   + y_53 + y_57 + y_59 + y_66 + y_68 + y_78 + y_80 + y_83 + y_84 + y_89
   + y_90 >= 1
 c_1_22: y_17 + y_21 + y_22 + y_23 + y_31 + y_47 + y_52 + y_56 + y_62
   + y_80 >= 1
 c_1_23: y_2 + y_16 + y_18 + y_21 + y_22 + y_23 + y_24 + y_31 + y_37 + y_43
   + y_52 + y_53 + y_57 + y_62 + y_68 + y_76 + y_78 + y_80 + y_84 >= 1
 c_1_24: y_2 + y_9 + y_16 + y_18 + y_23 + y_24 + y_36 + y_37 + y_43 + y_54
   + y_60 + y_68 + y_76 + y_78 + y_80 + y_84 + y_87 + y_94 + y_95 >= 1
 c_1_25: y_0 + y_25 + y_81 + y_92 >= 1
 c_1_26: y_15 + y_26 + y_29 + y_45 + y_47 + y_56 + y_69 + y_72 >= 1
 c_1_27: y_7 + y_10 + y_20 + y_27 + y_40 + y_51 + y_61 + y_73 + y_75 + y_88
   >= 1
 c_1_28: y_1 + y_9 + y_18 + y_28 + y_34 + y_38 + y_49 + y_53 + y_78 + y_84
   >= 1
 c_1_29: y_3 + y_6 + y_8 + y_15 + y_17 + y_26 + y_29 + y_45 + y_47 + y_55
   + y_56 + y_59 + y_63 + y_66 + y_69 + y_72 + y_83 + y_90 + y_99 >= 1
 c_1_30: y_30 + y_40 + y_41 + y_48 + y_58 + y_70 >= 1
 c_1_31: y_14 + y_17 + y_21 + y_22 + y_23 + y_31 + y_34 + y_47 + y_52
   + y_53 + y_55 + y_57 + y_59 + y_66 + y_68 + y_78 + y_80 + y_83 + y_84
   + y_89 + y_90 + y_99 >= 1
 c_1_32: y_0 + y_11 + y_12 + y_19 + y_32 + y_33 + y_35 + y_42 + y_46 + y_58
   + y_81 + y_82 + y_93 + y_98 >= 1
 c_1_33: y_12 + y_19 + y_32 + y_33 + y_38 + y_46 + y_58 + y_89 + y_98 >= 1
 c_1_34: y_9 + y_14 + y_18 + y_21 + y_28 + y_31 + y_34 + y_38 + y_43 + y_49
   + y_53 + y_57 + y_59 + y_68 + y_78 + y_84 + y_89 >= 1
 c_1_35: y_0 + y_11 + y_19 + y_32 + y_35 + y_39 + y_42 + y_46 + y_58 + y_81
   + y_82 + y_93 >= 1
 c_1_36: y_2 + y_16 + y_18 + y_24 + y_36 + y_37 + y_43 + y_50 + y_54 + y_60
   + y_64 + y_71 + y_76 + y_85 + y_87 + y_94 + y_95 >= 1
 c_1_37: y_2 + y_23 + y_24 + y_36 + y_37 + y_52 + y_62 + y_76 + y_80 + y_94
   >= 1
 c_1_38: y_1 + y_9 + y_14 + y_19 + y_28 + y_33 + y_34 + y_38 + y_46 + y_49
   + y_53 + y_57 + y_68 + y_78 + y_84 + y_89 + y_98 >= 1
 c_1_39: y_3 + y_4 + y_12 + y_35 + y_39 + y_63 + y_74 + y_89 + y_96 + y_99
   >= 1
 c_1_40: y_10 + y_20 + y_27 + y_30 + y_40 + y_41 + y_48 + y_51 + y_61
   + y_70 + y_73 + y_75 + y_79 + y_88 >= 1
 c_1_41: y_20 + y_30 + y_40 + y_41 + y_48 + y_61 + y_70 + y_73 + y_79
   + y_88 >= 1
 c_1_42: y_4 + y_11 + y_32 + y_35 + y_42 + y_82 + y_93 + y_96 + y_97 >= 1
 c_1_43: y_1 + y_2 + y_9 + y_16 + y_18 + y_23 + y_24 + y_34 + y_36 + y_43
   + y_49 + y_53 + y_57 + y_60 + y_68 + y_78 + y_84 + y_95 >= 1
 c_1_44: y_44 + y_60 + y_64 + y_65 + y_67 + y_71 + y_87 + y_91 >= 1
 c_1_45: y_3 + y_6 + y_8 + y_15 + y_17 + y_26 + y_29 + y_45 + y_47 + y_55
   + y_56 + y_66 + y_69 + y_72 + y_83 + y_90 + y_99 >= 1
 c_1_46: y_12 + y_19 + y_32 + y_33 + y_35 + y_38 + y_46 + y_58 + y_70
   + y_81 + y_98 >= 1
 c_1_47: y_6 + y_15 + y_17 + y_21 + y_22 + y_26 + y_29 + y_31 + y_45 + y_47
   + y_52 + y_55 + y_56 + y_59 + y_62 + y_66 + y_80 + y_83 + y_90 + y_99
   >= 1
 c_1_48: y_30 + y_40 + y_41 + y_48 + y_73 >= 1
 c_1_49: y_1 + y_9 + y_16 + y_18 + y_28 + y_34 + y_38 + y_43 + y_49 + y_53
   + y_57 + y_68 + y_78 + y_84 + y_95 >= 1
 c_1_50: y_36 + y_50 + y_54 + y_60 + y_64 + y_71 + y_85 + y_87 >= 1
 c_1_51: y_5 + y_7 + y_10 + y_20 + y_27 + y_40 + y_51 + y_61 + y_73 + y_75
   + y_77 + y_79 + y_88 >= 1
 c_1_52: y_2 + y_21 + y_22 + y_23 + y_31 + y_37 + y_47 + y_52 + y_62 + y_76
   + y_80 >= 1
 c_1_53: y_9 + y_14 + y_16 + y_18 + y_21 + y_23 + y_28 + y_31 + y_34 + y_38
   + y_43 + y_49 + y_53 + y_57 + y_59 + y_68 + y_78 + y_80 + y_84 + y_89
   >= 1
 c_1_54: y_2 + y_24 + y_36 + y_50 + y_54 + y_60 + y_64 + y_71 + y_76 + y_85
   + y_87 + y_94 >= 1
 c_1_55: y_3 + y_6 + y_15 + y_17 + y_29 + y_31 + y_45 + y_47 + y_55 + y_59
   + y_63 + y_66 + y_69 + y_72 + y_74 + y_83 + y_89 + y_90 + y_99 >= 1
 c_1_56: y_15 + y_22 + y_26 + y_29 + y_45 + y_47 + y_56 + y_72 >= 1
 c_1_57: y_9 + y_14 + y_18 + y_21 + y_23 + y_31 + y_34 + y_38 + y_43 + y_49
   + y_53 + y_57 + y_59 + y_68 + y_78 + y_84 + y_89 >= 1
 c_1_58: y_0 + y_19 + y_30 + y_32 + y_33 + y_35 + y_46 + y_58 + y_70 + y_81
   + y_98 >= 1
 c_1_59: y_6 + y_12 + y_14 + y_15 + y_17 + y_21 + y_29 + y_31 + y_34 + y_47
   + y_53 + y_55 + y_57 + y_59 + y_63 + y_66 + y_74 + y_83 + y_89 + y_90
   + y_99 >= 1
 c_1_60: y_16 + y_18 + y_24 + y_36 + y_43 + y_44 + y_50 + y_54 + y_60
   + y_64 + y_65 + y_71 + y_85 + y_87 + y_95 >= 1
 c_1_61: y_10 + y_20 + y_27 + y_40 + y_41 + y_51 + y_61 + y_73 + y_75
   + y_77 + y_79 + y_88 >= 1
 c_1_62: y_22 + y_23 + y_37 + y_47 + y_52 + y_62 + y_80 >= 1
 c_1_63: y_3 + y_4 + y_6 + y_12 + y_15 + y_29 + y_39 + y_55 + y_59 + y_63
   + y_66 + y_69 + y_74 + y_83 + y_90 + y_96 + y_99 >= 1
 c_1_64: y_36 + y_44 + y_50 + y_54 + y_60 + y_64 + y_65 + y_71 + y_85
   + y_87 + y_95 >= 1
 c_1_65: y_44 + y_60 + y_64 + y_65 + y_67 + y_71 + y_87 + y_91 + y_95 >= 1
 c_1_66: y_3 + y_6 + y_15 + y_17 + y_21 + y_29 + y_31 + y_45 + y_47 + y_55
   + y_59 + y_63 + y_66 + y_69 + y_72 + y_83 + y_90 + y_99 >= 1
 c_1_67: y_44 + y_65 + y_67 + y_91 >= 1
 c_1_68: y_2 + y_9 + y_14 + y_16 + y_18 + y_21 + y_23 + y_24 + y_31 + y_34
   + y_38 + y_43 + y_49 + y_53 + y_57 + y_68 + y_78 + y_80 + y_84 >= 1
 c_1_69: y_3 + y_6 + y_8 + y_15 + y_17 + y_26 + y_29 + y_45 + y_55 + y_63
   + y_66 + y_69 + y_72 + y_83 + y_90 + y_99 >= 1
 c_1_70: y_19 + y_30 + y_40 + y_41 + y_46 + y_58 + y_70 + y_79 + y_98 >= 1
 c_1_71: y_36 + y_44 + y_50 + y_54 + y_60 + y_64 + y_65 + y_71 + y_85
   + y_87 + y_95 >= 1
 c_1_72: y_3 + y_6 + y_8 + y_15 + y_26 + y_29 + y_45 + y_55 + y_56 + y_66
   + y_69 + y_72 + y_83 + y_90 + y_99 >= 1
 c_1_73: y_7 + y_10 + y_20 + y_27 + y_40 + y_41 + y_48 + y_51 + y_61 + y_73
   + y_75 + y_77 + y_79 + y_88 >= 1
 c_1_74: y_3 + y_4 + y_6 + y_12 + y_39 + y_55 + y_59 + y_63 + y_74 + y_83
   + y_89 + y_90 + y_99 >= 1
 c_1_75: y_5 + y_7 + y_10 + y_20 + y_27 + y_40 + y_51 + y_61 + y_73 + y_75
   + y_77 + y_79 + y_88 >= 1
 c_1_76: y_2 + y_16 + y_23 + y_24 + y_36 + y_37 + y_52 + y_54 + y_76 + y_80
   + y_94 >= 1
 c_1_77: y_5 + y_10 + y_20 + y_51 + y_61 + y_73 + y_75 + y_77 + y_79 + y_88
   >= 1
 c_1_78: y_2 + y_9 + y_14 + y_16 + y_18 + y_21 + y_23 + y_24 + y_28 + y_31
   + y_34 + y_38 + y_43 + y_49 + y_53 + y_57 + y_68 + y_78 + y_80 + y_84
   + y_95 >= 1
 c_1_79: y_10 + y_20 + y_40 + y_41 + y_51 + y_61 + y_70 + y_73 + y_75
   + y_77 + y_79 + y_88 >= 1
 c_1_80: y_2 + y_16 + y_21 + y_22 + y_23 + y_24 + y_31 + y_37 + y_47 + y_52
   + y_53 + y_62 + y_68 + y_76 + y_78 + y_80 >= 1
 c_1_81: y_0 + y_19 + y_25 + y_32 + y_35 + y_46 + y_58 + y_81 + y_92 >= 1
 c_1_82: y_4 + y_11 + y_32 + y_35 + y_42 + y_82 + y_93 + y_96 + y_97 >= 1
 c_1_83: y_3 + y_6 + y_15 + y_17 + y_21 + y_29 + y_31 + y_45 + y_47 + y_55
   + y_59 + y_63 + y_66 + y_69 + y_72 + y_74 + y_83 + y_89 + y_90 + y_99
   >= 1
 c_1_84: y_1 + y_9 + y_14 + y_16 + y_18 + y_21 + y_23 + y_24 + y_28 + y_31
   + y_34 + y_38 + y_43 + y_49 + y_53 + y_57 + y_68 + y_78 + y_84 + y_95
   >= 1
 c_1_85: y_36 + y_50 + y_54 + y_60 + y_64 + y_71 + y_85 + y_87 >= 1
 c_1_86: y_13 + y_86 >= 1
 c_1_87: y_24 + y_36 + y_44 + y_50 + y_54 + y_60 + y_64 + y_65 + y_71
   + y_85 + y_87 + y_95 >= 1
 c_1_88: y_10 + y_20 + y_27 + y_40 + y_41 + y_51 + y_61 + y_73 + y_75
   + y_77 + y_79 + y_88 >= 1
 c_1_89: y_6 + y_12 + y_14 + y_17 + y_21 + y_31 + y_33 + y_34 + y_38 + y_39
   + y_53 + y_55 + y_57 + y_59 + y_74 + y_83 + y_89 + y_90 + y_99 >= 1
 c_1_90: y_3 + y_6 + y_14 + y_15 + y_17 + y_21 + y_29 + y_31 + y_45 + y_47
   + y_55 + y_59 + y_63 + y_66 + y_69 + y_72 + y_74 + y_83 + y_89 + y_90
   + y_99 >= 1
 c_1_91: y_1 + y_5 + y_44 + y_65 + y_67 + y_91 >= 1
 c_1_92: y_0 + y_25 + y_81 + y_92 >= 1
 c_1_93: y_0 + y_4 + y_11 + y_32 + y_35 + y_42 + y_82 + y_93 + y_96 + y_97
   >= 1
 c_1_94: y_2 + y_24 + y_36 + y_37 + y_54 + y_76 + y_94 >= 1
 c_1_95: y_2 + y_9 + y_16 + y_18 + y_24 + y_36 + y_43 + y_49 + y_60 + y_64
   + y_65 + y_71 + y_78 + y_84 + y_87 + y_95 >= 1
 c_1_96: y_4 + y_39 + y_42 + y_63 + y_82 + y_93 + y_96 + y_97 >= 1
 c_1_97: y_4 + y_11 + y_42 + y_82 + y_93 + y_96 + y_97 >= 1
 c_1_98: y_19 + y_32 + y_33 + y_38 + y_46 + y_58 + y_70 + y_98 >= 1
 c_1_99: y_3 + y_6 + y_12 + y_14 + y_15 + y_17 + y_29 + y_31 + y_39 + y_45
   + y_47 + y_55 + y_59 + y_63 + y_66 + y_69 + y_72 + y_74 + y_83 + y_89
   + y_90 + y_99 >= 1
Bounds
 Constant = 1
Binaries
 y_0 y_1 y_2 y_3 y_4 y_5 y_6 y_7 y_8 y_9 y_10 y_11 y_12 y_13 y_14 y_15 y_16
 y_17 y_18 y_19 y_20 y_21 y_22 y_23 y_24 y_25 y_26 y_27 y_28 y_29 y_30 y_31
 y_32 y_33 y_34 y_35 y_36 y_37 y_38 y_39 y_40 y_41 y_42 y_43 y_44 y_45 y_46
 y_47 y_48 y_49 y_50 y_51 y_52 y_53 y_54 y_55 y_56 y_57 y_58 y_59 y_60 y_61
 y_62 y_63 y_64 y_65 y_66 y_67 y_68 y_69 y_70 y_71 y_72 y_73 y_74 y_75 y_76
 y_77 y_78 y_79 y_80 y_81 y_82 y_83 y_84 y_85 y_86 y_87 y_88 y_89 y_90 y_91
 y_92 y_93 y_94 y_95 y_96 y_97 y_98 y_99
End
